sat
(:added-eqs               14
 :arith-branch            129
 :arith-conflicts         10
 :arith-cube-calls        32
 :arith-cube-success      1
 :arith-dio-calls         129
 :arith-fixed-eqs         15
 :arith-gcd-calls         130
 :arith-lower             98
 :arith-make-feasible     169
 :arith-max-columns       212
 :arith-max-rows          84
 :arith-patches           130
 :arith-upper             225
 :conflicts               10
 :decisions               140
 :final-checks            130
 :max-memory              61.06
 :memory                  21.28
 :mk-bool-var             323
 :mk-clause               10
 :num-allocs              5682150795.00
 :num-checks              2
 :propagations            3
 :rlimit-count            21065174
 :sat-backjumps           60847
 :sat-backtracks          137
 :sat-conflicts           60984
 :sat-decisions           203544
 :sat-del-clause          15301
 :sat-elim-bool-vars-res  2817
 :sat-elim-clauses        935
 :sat-elim-literals       525
 :sat-minimized-lits      818533
 :sat-mk-clause-2ary      37473
 :sat-mk-clause-3ary      9943
 :sat-mk-clause-nary      151384
 :sat-mk-var              34436
 :sat-probing-assigned    217
 :sat-propagations-2ary   10850183
 :sat-propagations-nary   9600788
 :sat-restarts            8595
 :sat-scc-elim-binary     2
 :sat-scc-elim-vars       1
 :sat-subs-resolution     72
 :sat-subs-resolution-dyn 20977
 :sat-subsumed            103
 :sat-units               238
 :time                    7.08
 :total-time              7.05)
